Traveling Salesman Problem/TSP_generados/Aleatorio1621103614_16.tsp
NAME: Aleatorio1621103614_16.tsp
COMMENT: Randomly generated scenario
TYPE: TSP
DIMENSION: 16
EDGE_WEIGHT_TYPE: ATT
NODE_COORD_SECTION
1 24.06 10.77
2 25.5 33.98
3 44.77 9.49
4 6.79 13.94
5 17.9 14.57
6 29.46 39.72
7 12.6 15.51
8 24.38 35.64
9 32.99 20.73
10 21.72 49.71
11 15.23 10.58
12 5.44 19.83
13 28.95 49.63
14 44.25 14.72
15 19.67 49.01
16 1.83 49.86
