Traveling Salesman Problem/TSP_generados/Aleatorio1621103614_16.opt.tour
NAME: Aleatorio1621103614_16.opt.tour
COMMENT: Optimal solution for Aleatorio1621103614_16 (159.62109480641314)
TYPE: TOUR
DIMENSION: 16
TOUR_SECTION
1 3 14 9 2 8 6 13 10 15 16 12 4 7 11 5
-1
EOF
